NAME : traveling-santa-2018-prime-paths.28724.tour
COMMENT : Length = 28724
COMMENT : Found by LKH [Keld Helsgaun] Sun Jun 12 20:00:31 2022
TYPE : TOUR
DIMENSION : 100
TOUR_SECTION
1
65
24
87
91
59
69
77
76
97
31
63
86
72
90
78
81
32
70
83
45
7
41
5
84
30
36
27
80
68
73
18
8
21
9
79
82
33
56
53
100
2
11
16
3
57
66
67
60
98
55
6
48
37
42
40
29
35
93
20
46
74
99
19
17
39
12
54
96
14
28
94
61
38
15
51
43
49
58
50
47
71
75
85
25
34
23
64
44
22
52
13
4
89
10
95
88
62
26
92
-1
EOF
